# Data section
data;

set ParkingSpaces := p1 p2 p3 p4 p5;
set WaitingCars := Car1 Car2;

param :
        initLoad :=
    p1     0
    p2     3
    p3     1
    p4     0
    p5     3;

param :
        maxCarCapacity :=
    p1     25
    p2     25
    p3     25
    p4     25
    p5     25;

param :
        parked_car_num :=
    p1     0
    p2     1
    p3     1
    p4     0
    p5     1;

param :
        numPeopleInCar :=
    Car1     4
    Car2     4;